GLPSOL--GLPK LP/MIP Solver 5.0
Parameter(s) specified in the command line:
 --lp ../modeles/4_154.lp --log 4_154.log
Reading problem data from '../modeles/4_154.lp'...
633 rows, 1240 columns, 4324 non-zeros
616 integer variables, all of which are binary
1883 lines were read
GLPK Integer Optimizer 5.0
633 rows, 1240 columns, 4324 non-zeros
616 integer variables, all of which are binary
Preprocessing...
616 constraint coefficient(s) were reduced
633 rows, 1236 columns, 4320 non-zeros
616 integer variables, all of which are binary
Scaling...
 A: min|aij| =  6.747e-04  max|aij| =  4.000e+00  ratio =  5.929e+03
GM: min|aij| =  1.140e-01  max|aij| =  8.775e+00  ratio =  7.700e+01
EQ: min|aij| =  1.299e-02  max|aij| =  1.000e+00  ratio =  7.700e+01
2N: min|aij| =  1.079e-02  max|aij| =  1.762e+00  ratio =  1.633e+02
Constructing initial basis...
Size of triangular part is 633
Solving LP relaxation...
GLPK Simplex Optimizer 5.0
633 rows, 1236 columns, 4320 non-zeros
      0: obj =   8.000000000e+00 inf =   1.950e+01 (9)
     83: obj =   3.506707163e-01 inf =   0.000e+00 (0)
*   257: obj =  -1.999500500e+00 inf =   1.133e-15 (0)
OPTIMAL LP SOLUTION FOUND
Integer optimization begins...
Long-step dual simplex will be used
+   257: mip =     not found yet >=              -inf        (1; 0)
+   514: >>>>>  -1.999500500e+00 >=  -1.999500500e+00 < 0.1% (256; 0)
+   514: mip =  -1.999500500e+00 >=     tree is empty   0.0% (0; 511)
INTEGER OPTIMAL SOLUTION FOUND
Time used:   0.2 secs
Memory used: 1.8 Mb (1934910 bytes)
